70 5530071
1 59 22 28 41 46 6 69 35 40 18 25 49 7 66 52 4 19 11 9 58 68 20 51 44 53 24 34 55 45 60 57 3 2 13 27 56 16 10 8 32 15 36 47 30 50 64 65 14 21 42 54 33 62 38 23 26 48 63 39 67 43 17 37 31 70 29 61 12 5 
